 $CONTRL RUNTYP=ENERGY CCTYP=CCT3 COORD=PRINAXIS 
  MULT=1 ICHARG=0 UNITS=ANGS ISPHER=1 $END
 $SYSTEM TIMLIM=999999999999999 MWORDS=500 $END
 $BASIS GBASIS=STO NGAUSS=3 $END
 $SCF NCONV=9  $END
 $CCINP MAXCC=800 $END
 $DATA 
Title
DNH 2

C  6.0  -2.433634  0.708354  0.000000
C  6.0  -2.433634 -0.708354  0.000000
C  6.0   2.433634  0.708354  0.000000
C  6.0   2.433634 -0.708354  0.000000
H  1.0  -3.378135 -1.245817  0.000000
H  1.0  -3.378135  1.245817  0.000000
H  1.0   3.378135  1.245817  0.000000
H  1.0   3.378135 -1.245817  0.000000
C  6.0  -1.244704  1.402507  0.000000
C  6.0  -1.244704 -1.402507  0.000000
C  6.0   1.244704  1.402507  0.000000
C  6.0   1.244704 -1.402507  0.000000
C  6.0  -0.000000  0.717168  0.000000
C  6.0  -0.000000 -0.717168  0.000000
H  1.0  -1.242591  2.490280  0.000000
H  1.0  -1.242591 -2.490280  0.000000
H  1.0   1.242591  2.490280  0.000000
H  1.0   1.242591 -2.490280  0.000000
 $END

