! Example input file. All keywords attached with $ is the category, and the following keywords are supposed to be modified.

 $CONTRL SCFTYP=RHF RUNTYP=ENERGY CCTYP=CCT3 COORD=PRINAXIS MAXIT=200 MULT=1 ICUT=12 ICHARG=0 ISPHER=1 UNITS=ANGS $END
 $SYSTEM TIMLIM=999999999999999 MWORDS=500 $END
 $BASIS GBASIS=STO NGAUSS=3 $END
 $SCF NCONV=9 RSTRCT=.TRUE. $END
 $guess guess=moread norb=58 NORDER=1 IORDER(27)=28,29,30,27 $end
 $CCINP MAXCC=800 NCORE=29 NFZV=19 CCPRP=.TRUE. $END
 $DATA 
Title
DNH 2

C  6.0  -2.433634  0.708354  0.000000
C  6.0  -2.433634 -0.708354  0.000000
C  6.0   2.433634  0.708354  0.000000
C  6.0   2.433634 -0.708354  0.000000
H  1.0  -3.378135 -1.245817  0.000000
H  1.0  -3.378135  1.245817  0.000000
H  1.0   3.378135  1.245817  0.000000
H  1.0   3.378135 -1.245817  0.000000
C  6.0  -1.244704  1.402507  0.000000
C  6.0  -1.244704 -1.402507  0.000000
C  6.0   1.244704  1.402507  0.000000
C  6.0   1.244704 -1.402507  0.000000
C  6.0  -0.000000  0.717168  0.000000
C  6.0  -0.000000 -0.717168  0.000000
H  1.0  -1.242591  2.490280  0.000000
H  1.0  -1.242591 -2.490280  0.000000
H  1.0   1.242591  2.490280  0.000000
H  1.0   1.242591 -2.490280  0.000000
 $END
 $VEC   
 1  1-4.41532529E-03-5.22232292E-05 1.02497401E-04-6.44630435E-05 0.00000000E+00
 1  2-4.41532529E-03-5.22232292E-05-1.02497401E-04-6.44630435E-05 0.00000000E+00
 1  3-4.41532529E-03-5.22232292E-05 1.02497401E-04 6.44630435E-05 0.00000000E+00
 1  4-4.41532529E-03-5.22232292E-05-1.02497401E-04 6.44630435E-05 0.00000000E+00
 1  5-5.88686416E-05-5.88686416E-05-5.88686416E-05-5.88686416E-05 1.73536369E-03
 1  6-4.60493590E-03 2.72884412E-03-1.50514275E-03 0.00000000E+00 1.73536369E-03
 1  7-4.60493590E-03-2.72884412E-03-1.50514275E-03 0.00000000E+00 1.73536369E-03
 1  8-4.60493590E-03 2.72884412E-03 1.50514275E-03 0.00000000E+00 1.73536369E-03
 1  9-4.60493590E-03-2.72884412E-03 1.50514275E-03 0.00000000E+00 7.01823306E-01
 1 10 2.09818968E-02 0.00000000E+00-3.06828257E-03 0.00000000E+00 7.01823306E-01
 1 11 2.09818968E-02 0.00000000E+00 3.06828257E-03 0.00000000E+00-1.19843383E-05
 1 12-1.19843383E-05-1.19843383E-05-1.19843383E-05
 2  1 8.58948957E-04 2.36647463E-04-1.18670310E-04 6.76542675E-05 0.00000000E+00
 2  2 8.58948957E-04 2.36647463E-04 1.18670310E-04 6.76542675E-05 0.00000000E+00
 2  3-8.58948957E-04-2.36647463E-04 1.18670310E-04 6.76542675E-05 0.00000000E+00
 2  4-8.58948957E-04-2.36647463E-04-1.18670310E-04 6.76542675E-05 0.00000000E+00
 2  5 1.92577404E-05 1.92577404E-05-1.92577404E-05-1.92577404E-05 5.25606969E-03
 2  6-4.82955865E-03 2.77770362E-03-1.50807927E-03 0.00000000E+00 5.25606969E-03
 2  7-4.82955865E-03-2.77770362E-03-1.50807927E-03 0.00000000E+00-5.25606969E-03
 2  8 4.82955865E-03-2.77770362E-03-1.50807927E-03 0.00000000E+00-5.25606969E-03
 2  9 4.82955865E-03 2.77770362E-03-1.50807927E-03 0.00000000E+00 7.01193611E-01
 2 10 3.04874379E-02 0.00000000E+00 3.16613374E-03 0.00000000E+00-7.01193611E-01
 2 11-3.04874379E-02 0.00000000E+00 3.16613374E-03 0.00000000E+00 7.37550409E-05
 2 12 7.37550409E-05-7.37550409E-05-7.37550409E-05
 3  1 4.91265135E-01 1.40870282E-02-2.28219329E-04-1.89137059E-03 0.00000000E+00
 3  2-4.91265135E-01-1.40870282E-02-2.28219329E-04 1.89137059E-03 0.00000000E+00
 3  3 4.91265135E-01 1.40870282E-02-2.28219329E-04 1.89137059E-03 0.00000000E+00
 3  4-4.91265135E-01-1.40870282E-02-2.28219329E-04-1.89137059E-03 0.00000000E+00
 3  5-3.33172566E-03 3.33172566E-03-3.33172566E-03 3.33172566E-03 7.09038946E-02
 3  6-8.82455170E-04-1.91643459E-03-1.09605359E-03 0.00000000E+00-7.09038946E-02
 3  7 8.82455170E-04-1.91643459E-03 1.09605359E-03 0.00000000E+00 7.09038946E-02
 3  8-8.82455170E-04-1.91643459E-03 1.09605359E-03 0.00000000E+00-7.09038946E-02
 3  9 8.82455170E-04-1.91643459E-03-1.09605359E-03 0.00000000E+00 0.00000000E+00
 3 10 0.00000000E+00-7.41238624E-04 0.00000000E+00 0.00000000E+00 0.00000000E+00
 3 11 0.00000000E+00-7.41238624E-04 0.00000000E+00 0.00000000E+00-4.73200612E-04
 3 12 4.73200612E-04-4.73200612E-04 4.73200612E-04
 4  1 4.92256038E-01 1.41543757E-02-2.46468783E-04-1.90832386E-03 0.00000000E+00
 4  2 4.92256038E-01 1.41543757E-02 2.46468783E-04-1.90832386E-03 0.00000000E+00
 4  3 4.92256038E-01 1.41543757E-02-2.46468783E-04 1.90832386E-03 0.00000000E+00
 4  4 4.92256038E-01 1.41543757E-02 2.46468783E-04 1.90832386E-03 0.00000000E+00
 4  5-3.33999970E-03-3.33999970E-03-3.33999970E-03-3.33999970E-03 6.35158896E-02
 4  6-1.31350746E-03-1.79332012E-03-1.14309025E-03 0.00000000E+00 6.35158896E-02
 4  7-1.31350746E-03 1.79332012E-03-1.14309025E-03 0.00000000E+00 6.35158896E-02
 4  8-1.31350746E-03-1.79332012E-03 1.14309025E-03 0.00000000E+00 6.35158896E-02
 4  9-1.31350746E-03 1.79332012E-03 1.14309025E-03 0.00000000E+00 6.09600343E-03
 4 10-5.03725951E-04 0.00000000E+00 5.44502776E-05 0.00000000E+00 6.09600343E-03
 4 11-5.03725951E-04 0.00000000E+00-5.44502776E-05 0.00000000E+00-4.39137919E-04
 4 12-4.39137919E-04-4.39137919E-04-4.39137919E-04
 5  1 4.85235795E-01 2.03904493E-02-2.40369413E-04 2.55098240E-03 0.00000000E+00
 5  2-4.85235795E-01-2.03904493E-02-2.40369413E-04-2.55098240E-03 0.00000000E+00
 5  3-4.85235795E-01-2.03904493E-02 2.40369413E-04 2.55098240E-03 0.00000000E+00
 5  4 4.85235795E-01 2.03904493E-02 2.40369413E-04-2.55098240E-03 0.00000000E+00
 5  5 3.35090620E-03-3.35090620E-03-3.35090620E-03 3.35090620E-03 1.02559982E-01
 5  6 2.02571194E-05-1.90187552E-03-1.03408449E-03 0.00000000E+00-1.02559982E-01
 5  7-2.02571194E-05-1.90187552E-03 1.03408449E-03 0.00000000E+00-1.02559982E-01
 5  8-2.02571194E-05 1.90187552E-03-1.03408449E-03 0.00000000E+00 1.02559982E-01
 5  9 2.02571194E-05 1.90187552E-03 1.03408449E-03 0.00000000E+00 0.00000000E+00
 5 10 0.00000000E+00-6.20699705E-04 0.00000000E+00 0.00000000E+00 0.00000000E+00
 5 11 0.00000000E+00 6.20699705E-04 0.00000000E+00 0.00000000E+00-5.94747234E-04
 5 12 5.94747234E-04 5.94747234E-04-5.94747234E-04
 6  1 4.86299550E-01 2.04512380E-02-2.46176455E-04 2.54756550E-03-0.00000000E+00
 6  2 4.86299550E-01 2.04512380E-02 2.46176455E-04 2.54756550E-03-0.00000000E+00
 6  3-4.86299550E-01-2.04512380E-02 2.46176455E-04 2.54756550E-03-0.00000000E+00
 6  4-4.86299550E-01-2.04512380E-02-2.46176455E-04 2.54756550E-03-0.00000000E+00
 6  5 3.35851467E-03 3.35851467E-03-3.35851467E-03-3.35851467E-03 9.73649650E-02
 6  6-1.24542062E-04-1.89543228E-03-1.00475900E-03-0.00000000E+00 9.73649650E-02
 6  7-1.24542062E-04 1.89543228E-03-1.00475900E-03-0.00000000E+00-9.73649650E-02
 6  8 1.24542062E-04 1.89543228E-03-1.00475900E-03-0.00000000E+00-9.73649650E-02
 6  9 1.24542062E-04-1.89543228E-03-1.00475900E-03-0.00000000E+00-2.49658770E-03
 6 10-1.17957890E-03-0.00000000E+00 3.88573577E-04-0.00000000E+00 2.49658770E-03
 6 11 1.17957890E-03-0.00000000E+00 3.88573577E-04-0.00000000E+00-5.85327738E-04
 6 12-5.85327738E-04 5.85327738E-04 5.85327738E-04
 7  1-1.02186767E-01-8.13259193E-03 2.00313427E-03 5.63799437E-04-0.00000000E+00
 7  2 1.02186767E-01 8.13259193E-03 2.00313427E-03-5.63799437E-04-0.00000000E+00
 7  3 1.02186767E-01 8.13259193E-03-2.00313427E-03 5.63799437E-04-0.00000000E+00
 7  4-1.02186767E-01-8.13259193E-03-2.00313427E-03-5.63799437E-04-0.00000000E+00
 7  5-8.01569503E-04 8.01569503E-04 8.01569503E-04-8.01569503E-04 4.85356512E-01
 7  6 1.84464565E-02 5.64908024E-04 8.49541209E-04-0.00000000E+00-4.85356512E-01
 7  7-1.84464565E-02 5.64908024E-04-8.49541209E-04-0.00000000E+00-4.85356512E-01
 7  8-1.84464565E-02-5.64908024E-04 8.49541209E-04-0.00000000E+00 4.85356512E-01
 7  9 1.84464565E-02-5.64908024E-04-8.49541209E-04-0.00000000E+00-0.00000000E+00
 7 10-0.00000000E+00-3.81282011E-03-0.00000000E+00-0.00000000E+00-0.00000000E+00
 7 11-0.00000000E+00 3.81282011E-03-0.00000000E+00-0.00000000E+00-3.28520364E-03
 7 12 3.28520364E-03 3.28520364E-03-3.28520364E-03
 8  1-9.69984325E-02-7.99169040E-03 2.04637266E-03 5.91200561E-04-0.00000000E+00
 8  2-9.69984325E-02-7.99169040E-03-2.04637266E-03 5.91200561E-04-0.00000000E+00
 8  3 9.69984325E-02 7.99169040E-03-2.04637266E-03 5.91200561E-04-0.00000000E+00
 8  4 9.69984325E-02 7.99169040E-03 2.04637266E-03 5.91200561E-04-0.00000000E+00
 8  5-7.65781723E-04-7.65781723E-04 7.65781723E-04 7.65781723E-04 4.86404424E-01
 8  6 1.87932791E-02 4.56785373E-04 9.29159603E-04-0.00000000E+00 4.86404424E-01
 8  7 1.87932791E-02-4.56785373E-04 9.29159603E-04-0.00000000E+00-4.86404424E-01
 8  8-1.87932791E-02-4.56785373E-04 9.29159603E-04-0.00000000E+00-4.86404424E-01
 8  9-1.87932791E-02 4.56785373E-04 9.29159603E-04-0.00000000E+00-6.23926546E-03
 8 10-7.33346639E-03-0.00000000E+00 1.93979979E-03-0.00000000E+00 6.23926546E-03
 8 11 7.33346639E-03-0.00000000E+00 1.93979979E-03-0.00000000E+00-3.36117596E-03
 8 12-3.36117596E-03 3.36117596E-03 3.36117596E-03
 9  1-7.05517773E-02-5.57882960E-03 2.03167515E-03 1.40848737E-03 0.00000000E+00
 9  2 7.05517773E-02 5.57882960E-03 2.03167515E-03-1.40848737E-03 0.00000000E+00
 9  3-7.05517773E-02-5.57882960E-03 2.03167515E-03-1.40848737E-03 0.00000000E+00
 9  4 7.05517773E-02 5.57882960E-03 2.03167515E-03 1.40848737E-03 0.00000000E+00
 9  5 4.86238180E-04-4.86238180E-04 4.86238180E-04-4.86238180E-04 4.91005578E-01
 9  6 1.83532378E-02 4.08135651E-04 6.29042291E-04 0.00000000E+00-4.91005578E-01
 9  7-1.83532378E-02 4.08135651E-04-6.29042291E-04 0.00000000E+00 4.91005578E-01
 9  8 1.83532378E-02 4.08135651E-04-6.29042291E-04 0.00000000E+00-4.91005578E-01
 9  9-1.83532378E-02 4.08135651E-04 6.29042291E-04 0.00000000E+00 0.00000000E+00
 9 10 0.00000000E+00-3.93190348E-03 0.00000000E+00 0.00000000E+00 0.00000000E+00
 9 11 0.00000000E+00-3.93190348E-03 0.00000000E+00 0.00000000E+00-3.35886446E-03
 9 12 3.35886446E-03-3.35886446E-03 3.35886446E-03
10  1-6.31197164E-02-5.43088766E-03 2.09834824E-03 1.36858873E-03-0.00000000E+00
10  2-6.31197164E-02-5.43088766E-03-2.09834824E-03 1.36858873E-03-0.00000000E+00
10  3-6.31197164E-02-5.43088766E-03 2.09834824E-03-1.36858873E-03-0.00000000E+00
10  4-6.31197164E-02-5.43088766E-03-2.09834824E-03-1.36858873E-03-0.00000000E+00
10  5 4.23168470E-04 4.23168470E-04 4.23168470E-04 4.23168470E-04 4.92034702E-01
10  6 1.85119486E-02 3.70399639E-04 5.89668927E-04-0.00000000E+00 4.92034702E-01
10  7 1.85119486E-02-3.70399639E-04 5.89668927E-04-0.00000000E+00 4.92034702E-01
10  8 1.85119486E-02 3.70399639E-04-5.89668927E-04-0.00000000E+00 4.92034702E-01
10  9 1.85119486E-02-3.70399639E-04-5.89668927E-04-0.00000000E+00-2.34262515E-03
10 10-6.68258483E-03-0.00000000E+00 2.11663102E-03-0.00000000E+00-2.34262515E-03
10 11-6.68258483E-03-0.00000000E+00-2.11663102E-03-0.00000000E+00-3.45066641E-03
10 12-3.45066641E-03-3.45066641E-03-3.45066641E-03
11  1-6.42860193E-02 1.61469629E-01-3.83868174E-02 1.46309974E-02 0.00000000E+00
11  2-6.42860193E-02 1.61469629E-01 3.83868174E-02 1.46309974E-02 0.00000000E+00
11  3-6.42860193E-02 1.61469629E-01-3.83868174E-02-1.46309974E-02 0.00000000E+00
11  4-6.42860193E-02 1.61469629E-01 3.83868174E-02-1.46309974E-02 0.00000000E+00
11  5 2.68588362E-02 2.68588362E-02 2.68588362E-02 2.68588362E-02-7.73523051E-02
11  6 1.95340878E-01-1.60595297E-02 4.45915771E-02 0.00000000E+00-7.73523051E-02
11  7 1.95340878E-01 1.60595297E-02 4.45915771E-02 0.00000000E+00-7.73523051E-02
11  8 1.95340878E-01-1.60595297E-02-4.45915771E-02 0.00000000E+00-7.73523051E-02
11  9 1.95340878E-01 1.60595297E-02-4.45915771E-02 0.00000000E+00-1.15195559E-01
11 10 2.91465674E-01 0.00000000E+00 2.42477872E-02 0.00000000E+00-1.15195559E-01
11 11 2.91465674E-01 0.00000000E+00-2.42477872E-02 0.00000000E+00 3.43468932E-02
11 12 3.43468932E-02 3.43468932E-02 3.43468932E-02
12  1-1.04086109E-01 2.68817463E-01-4.01410650E-02 3.31476476E-02-0.00000000E+00
12  2 1.04086109E-01-2.68817463E-01-4.01410650E-02-3.31476476E-02-0.00000000E+00
12  3-1.04086109E-01 2.68817463E-01-4.01410650E-02-3.31476476E-02-0.00000000E+00
12  4 1.04086109E-01-2.68817463E-01-4.01410650E-02 3.31476476E-02-0.00000000E+00
12  5 5.42309725E-02-5.42309725E-02 5.42309725E-02-5.42309725E-02-7.20430756E-02
12  6 1.84826103E-01 4.35715408E-02 4.09790879E-02-0.00000000E+00 7.20430756E-02
12  7-1.84826103E-01 4.35715408E-02-4.09790879E-02-0.00000000E+00-7.20430756E-02
12  8 1.84826103E-01 4.35715408E-02-4.09790879E-02-0.00000000E+00 7.20430756E-02
12  9-1.84826103E-01 4.35715408E-02 4.09790879E-02-0.00000000E+00-0.00000000E+00
12 10-0.00000000E+00 8.35711285E-02-0.00000000E+00-0.00000000E+00-0.00000000E+00
12 11-0.00000000E+00 8.35711285E-02-0.00000000E+00-0.00000000E+00 3.47442143E-02
12 12-3.47442143E-02 3.47442143E-02-3.47442143E-02
13  1-4.52280376E-02 1.20531027E-01-4.58437599E-02-5.42214923E-02 0.00000000E+00
13  2-4.52280376E-02 1.20531027E-01 4.58437599E-02-5.42214923E-02 0.00000000E+00
13  3 4.52280376E-02-1.20531027E-01 4.58437599E-02-5.42214923E-02 0.00000000E+00
13  4 4.52280376E-02-1.20531027E-01-4.58437599E-02-5.42214923E-02 0.00000000E+00
13  5-2.98943075E-02-2.98943075E-02 2.98943075E-02 2.98943075E-02-1.03176404E-01
13  6 2.75384333E-01-2.28571640E-02 2.06642575E-02 0.00000000E+00-1.03176404E-01
13  7 2.75384333E-01 2.28571640E-02 2.06642575E-02 0.00000000E+00 1.03176404E-01
13  8-2.75384333E-01 2.28571640E-02 2.06642575E-02 0.00000000E+00 1.03176404E-01
13  9-2.75384333E-01-2.28571640E-02 2.06642575E-02 0.00000000E+00-8.67168703E-02
13 10 2.30741556E-01 0.00000000E+00-1.03865289E-01 0.00000000E+00 8.67168703E-02
13 11-2.30741556E-01 0.00000000E+00-1.03865289E-01 0.00000000E+00 7.30710699E-02
13 12 7.30710699E-02-7.30710699E-02-7.30710699E-02
14  1 1.01787322E-01-2.76344431E-01-1.28029245E-02-5.27725452E-02-0.00000000E+00
14  2 1.01787322E-01-2.76344431E-01 1.28029245E-02-5.27725452E-02-0.00000000E+00
14  3 1.01787322E-01-2.76344431E-01-1.28029245E-02 5.27725452E-02-0.00000000E+00
14  4 1.01787322E-01-2.76344431E-01 1.28029245E-02 5.27725452E-02-0.00000000E+00
14  5-7.85726877E-02-7.85726877E-02-7.85726877E-02-7.85726877E-02-4.55687751E-03
14  6 1.32039146E-02-1.13944023E-01-1.14474842E-03-0.00000000E+00-4.55687751E-03
14  7 1.32039146E-02 1.13944023E-01-1.14474842E-03-0.00000000E+00-4.55687751E-03
14  8 1.32039146E-02-1.13944023E-01 1.14474842E-03-0.00000000E+00-4.55687751E-03
14  9 1.32039146E-02 1.13944023E-01 1.14474842E-03-0.00000000E+00-1.07648522E-01
14 10 2.94075503E-01-0.00000000E+00 4.67751622E-02-0.00000000E+00-1.07648522E-01
14 11 2.94075503E-01-0.00000000E+00-4.67751622E-02-0.00000000E+00 4.66044241E-03
14 12 4.66044241E-03 4.66044241E-03 4.66044241E-03
15  1-7.04868617E-02 1.92279610E-01-5.57202915E-02-8.69571172E-02 0.00000000E+00
15  2 7.04868617E-02-1.92279610E-01-5.57202915E-02 8.69571172E-02 0.00000000E+00
15  3 7.04868617E-02-1.92279610E-01 5.57202915E-02-8.69571172E-02 0.00000000E+00
15  4-7.04868617E-02 1.92279610E-01 5.57202915E-02 8.69571172E-02 0.00000000E+00
15  5-5.89082495E-02 5.89082495E-02 5.89082495E-02-5.89082495E-02-1.02678019E-01
15  6 2.81230008E-01 5.15952664E-02 1.73950062E-02 0.00000000E+00 1.02678019E-01
15  7-2.81230008E-01 5.15952664E-02-1.73950062E-02 0.00000000E+00 1.02678019E-01
15  8-2.81230008E-01-5.15952664E-02 1.73950062E-02 0.00000000E+00-1.02678019E-01
15  9 2.81230008E-01-5.15952664E-02-1.73950062E-02 0.00000000E+00 0.00000000E+00
15 10 0.00000000E+00 1.04128260E-01 0.00000000E+00 0.00000000E+00 0.00000000E+00
15 11 0.00000000E+00-1.04128260E-01 0.00000000E+00 0.00000000E+00 8.01131029E-02
15 12-8.01131029E-02-8.01131029E-02 8.01131029E-02
16  1 6.51637448E-02-1.92892919E-01-1.21450601E-01-9.90443613E-02-0.00000000E+00
16  2-6.51637448E-02 1.92892919E-01-1.21450601E-01 9.90443613E-02-0.00000000E+00
16  3 6.51637448E-02-1.92892919E-01-1.21450601E-01 9.90443613E-02-0.00000000E+00
16  4-6.51637448E-02 1.92892919E-01-1.21450601E-01-9.90443613E-02-0.00000000E+00
16  5-1.02227282E-01 1.02227282E-01-1.02227282E-01 1.02227282E-01-8.19210606E-02
16  6 2.36667037E-01-4.67256444E-02-5.74122312E-03-0.00000000E+00 8.19210606E-02
16  7-2.36667037E-01-4.67256444E-02 5.74122312E-03-0.00000000E+00-8.19210606E-02
16  8 2.36667037E-01-4.67256444E-02 5.74122312E-03-0.00000000E+00 8.19210606E-02
16  9-2.36667037E-01-4.67256444E-02-5.74122312E-03-0.00000000E+00-0.00000000E+00
16 10-0.00000000E+00 1.75661093E-01-0.00000000E+00-0.00000000E+00-0.00000000E+00
16 11-0.00000000E+00 1.75661093E-01-0.00000000E+00-0.00000000E+00 8.94014739E-02
16 12-8.94014739E-02 8.94014739E-02-8.94014739E-02
17  1 8.09273754E-02-2.36546501E-01-4.16413345E-04 1.08432223E-01 0.00000000E+00
17  2 8.09273754E-02-2.36546501E-01 4.16413345E-04 1.08432223E-01 0.00000000E+00
17  3-8.09273754E-02 2.36546501E-01 4.16413345E-04 1.08432223E-01 0.00000000E+00
17  4-8.09273754E-02 2.36546501E-01-4.16413345E-04 1.08432223E-01 0.00000000E+00
17  5 1.20773230E-01 1.20773230E-01-1.20773230E-01-1.20773230E-01 1.99795794E-03
17  6-3.11874576E-03-1.89592048E-01-5.56852634E-03 0.00000000E+00 1.99795794E-03
17  7-3.11874576E-03 1.89592048E-01-5.56852634E-03 0.00000000E+00-1.99795794E-03
17  8 3.11874576E-03 1.89592048E-01-5.56852634E-03 0.00000000E+00-1.99795794E-03
17  9 3.11874576E-03-1.89592048E-01-5.56852634E-03 0.00000000E+00-8.28740073E-02
17 10 2.41055229E-01 0.00000000E+00-1.12653246E-01 0.00000000E+00 8.28740073E-02
17 11-2.41055229E-01 0.00000000E+00-1.12653246E-01 0.00000000E+00 1.87872142E-03
17 12 1.87872142E-03-1.87872142E-03-1.87872142E-03
18  1-2.22226322E-02 6.43509285E-02 4.45108210E-02 1.09150213E-01-0.00000000E+00
18  2-2.22226322E-02 6.43509285E-02-4.45108210E-02 1.09150213E-01-0.00000000E+00
18  3-2.22226322E-02 6.43509285E-02 4.45108210E-02-1.09150213E-01-0.00000000E+00
18  4-2.22226322E-02 6.43509285E-02-4.45108210E-02-1.09150213E-01-0.00000000E+00
18  5 1.69555774E-02 1.69555774E-02 1.69555774E-02 1.69555774E-02 7.15705043E-02
18  6-2.14123091E-01-1.60604615E-02 1.23922494E-01-0.00000000E+00 7.15705043E-02
18  7-2.14123091E-01 1.60604615E-02 1.23922494E-01-0.00000000E+00 7.15705043E-02
18  8-2.14123091E-01-1.60604615E-02-1.23922494E-01-0.00000000E+00 7.15705043E-02
18  9-2.14123091E-01 1.60604615E-02-1.23922494E-01-0.00000000E+00-6.12260165E-02
18 10 1.82089136E-01-0.00000000E+00 2.19314883E-01-0.00000000E+00-6.12260165E-02
18 11 1.82089136E-01-0.00000000E+00-2.19314883E-01-0.00000000E+00-1.59761372E-01
18 12-1.59761372E-01-1.59761372E-01-1.59761372E-01
19  1-6.90134444E-02 2.20330329E-01 1.01703901E-01-9.54436792E-02-0.00000000E+00
19  2 6.90134444E-02-2.20330329E-01 1.01703901E-01 9.54436792E-02-0.00000000E+00
19  3 6.90134444E-02-2.20330329E-01-1.01703901E-01-9.54436792E-02-0.00000000E+00
19  4-6.90134444E-02 2.20330329E-01-1.01703901E-01 9.54436792E-02-0.00000000E+00
19  5-1.92983624E-01 1.92983624E-01 1.92983624E-01-1.92983624E-01 5.92708453E-02
19  6-1.90976586E-01 1.23823315E-01 4.07600755E-02-0.00000000E+00-5.92708453E-02
19  7 1.90976586E-01 1.23823315E-01-4.07600755E-02-0.00000000E+00-5.92708453E-02
19  8 1.90976586E-01-1.23823315E-01 4.07600755E-02-0.00000000E+00 5.92708453E-02
19  9-1.90976586E-01-1.23823315E-01-4.07600755E-02-0.00000000E+00-0.00000000E+00
19 10-0.00000000E+00-1.65642391E-01-0.00000000E+00-0.00000000E+00-0.00000000E+00
19 11-0.00000000E+00 1.65642391E-01-0.00000000E+00-0.00000000E+00-1.08368040E-01
19 12 1.08368040E-01 1.08368040E-01-1.08368040E-01
20  1-2.71188878E-03 4.06442128E-03-1.03247662E-01 1.65483853E-01 0.00000000E+00
20  2 2.71188878E-03-4.06442128E-03-1.03247662E-01-1.65483853E-01 0.00000000E+00
20  3-2.71188878E-03 4.06442128E-03-1.03247662E-01-1.65483853E-01 0.00000000E+00
20  4 2.71188878E-03-4.06442128E-03-1.03247662E-01 1.65483853E-01 0.00000000E+00
20  5-1.18543255E-01 1.18543255E-01-1.18543255E-01 1.18543255E-01 2.36276366E-02
20  6-8.13800335E-02-6.72891728E-02 1.90789978E-01 0.00000000E+00-2.36276366E-02
20  7 8.13800335E-02-6.72891728E-02-1.90789978E-01 0.00000000E+00 2.36276366E-02
20  8-8.13800335E-02-6.72891728E-02-1.90789978E-01 0.00000000E+00-2.36276366E-02
20  9 8.13800335E-02-6.72891728E-02 1.90789978E-01 0.00000000E+00 0.00000000E+00
20 10 0.00000000E+00 1.48429517E-01 0.00000000E+00 0.00000000E+00 0.00000000E+00
20 11 0.00000000E+00 1.48429517E-01 0.00000000E+00 0.00000000E+00-1.65381242E-01
20 12 1.65381242E-01-1.65381242E-01 1.65381242E-01
21  1-4.79627127E-03 2.26842194E-02 2.61642729E-01 2.38911870E-02-0.00000000E+00
21  2-4.79627127E-03 2.26842194E-02-2.61642729E-01 2.38911870E-02-0.00000000E+00
21  3-4.79627127E-03 2.26842194E-02 2.61642729E-01-2.38911870E-02-0.00000000E+00
21  4-4.79627127E-03 2.26842194E-02-2.61642729E-01-2.38911870E-02-0.00000000E+00
21  5 1.70747838E-01 1.70747838E-01 1.70747838E-01 1.70747838E-01 2.06991025E-02
21  6-6.04093655E-02-1.57442799E-01-1.03417184E-01-0.00000000E+00 2.06991025E-02
21  7-6.04093655E-02 1.57442799E-01-1.03417184E-01-0.00000000E+00 2.06991025E-02
21  8-6.04093655E-02-1.57442799E-01 1.03417184E-01-0.00000000E+00 2.06991025E-02
21  9-6.04093655E-02 1.57442799E-01 1.03417184E-01-0.00000000E+00-3.85981480E-02
21 10 1.27260820E-01-0.00000000E+00-8.00278683E-02-0.00000000E+00-3.85981480E-02
21 11 1.27260820E-01-0.00000000E+00 8.00278683E-02-0.00000000E+00 4.94525828E-02
21 12 4.94525828E-02 4.94525828E-02 4.94525828E-02
22  1-3.44690554E-02 1.16683522E-01 1.19249871E-02-2.48970141E-02 0.00000000E+00
22  2-3.44690554E-02 1.16683522E-01-1.19249871E-02-2.48970141E-02 0.00000000E+00
22  3 3.44690554E-02-1.16683522E-01-1.19249871E-02-2.48970141E-02 0.00000000E+00
22  4 3.44690554E-02-1.16683522E-01 1.19249871E-02-2.48970141E-02 0.00000000E+00
22  5-7.51683848E-02-7.51683848E-02 7.51683848E-02 7.51683848E-02 1.99310404E-02
22  6-6.95938820E-02-5.05695660E-02 2.53441247E-01 0.00000000E+00 1.99310404E-02
22  7-6.95938820E-02 5.05695660E-02 2.53441247E-01 0.00000000E+00-1.99310404E-02
22  8 6.95938820E-02 5.05695660E-02 2.53441247E-01 0.00000000E+00-1.99310404E-02
22  9 6.95938820E-02-5.05695660E-02 2.53441247E-01 0.00000000E+00-7.19011146E-02
22 10 2.41845239E-01 0.00000000E+00-6.04852324E-02 0.00000000E+00 7.19011146E-02
22 11-2.41845239E-01 0.00000000E+00-6.04852324E-02 0.00000000E+00-2.52989643E-01
22 12-2.52989643E-01 2.52989643E-01 2.52989643E-01
23  1 1.11999470E-02-3.77260296E-02 4.85499742E-02-2.78959509E-01-0.00000000E+00
23  2 1.11999470E-02-3.77260296E-02-4.85499742E-02-2.78959509E-01-0.00000000E+00
23  3 1.11999470E-02-3.77260296E-02 4.85499742E-02 2.78959509E-01-0.00000000E+00
23  4 1.11999470E-02-3.77260296E-02-4.85499742E-02 2.78959509E-01-0.00000000E+00
23  5 1.36206062E-01 1.36206062E-01 1.36206062E-01 1.36206062E-01 1.87945825E-03
23  6-7.92314481E-03 1.47850750E-01-2.38155282E-02-0.00000000E+00 1.87945825E-03
23  7-7.92314481E-03-1.47850750E-01-2.38155282E-02-0.00000000E+00 1.87945825E-03
23  8-7.92314481E-03 1.47850750E-01 2.38155282E-02-0.00000000E+00 1.87945825E-03
23  9-7.92314481E-03-1.47850750E-01 2.38155282E-02-0.00000000E+00-1.93830631E-02
23 10 6.94311002E-02-0.00000000E+00 2.94042173E-01-0.00000000E+00-1.93830631E-02
23 11 6.94311002E-02-0.00000000E+00-2.94042173E-01-0.00000000E+00 1.64653163E-02
23 12 1.64653163E-02 1.64653163E-02 1.64653163E-02
24  1-1.79126674E-02 5.88166350E-02-1.22214847E-01 3.47477425E-03-0.00000000E+00
24  2 1.79126674E-02-5.88166350E-02-1.22214847E-01-3.47477425E-03-0.00000000E+00
24  3 1.79126674E-02-5.88166350E-02 1.22214847E-01 3.47477425E-03-0.00000000E+00
24  4-1.79126674E-02 5.88166350E-02 1.22214847E-01-3.47477425E-03-0.00000000E+00
24  5 6.57076730E-02-6.57076730E-02-6.57076730E-02 6.57076730E-02-8.07587028E-03
24  6 2.02660973E-02-9.94864159E-03 2.86536390E-01-0.00000000E+00 8.07587028E-03
24  7-2.02660973E-02-9.94864159E-03-2.86536390E-01-0.00000000E+00 8.07587028E-03
24  8-2.02660973E-02 9.94864159E-03 2.86536390E-01-0.00000000E+00-8.07587028E-03
24  9 2.02660973E-02 9.94864159E-03-2.86536390E-01-0.00000000E+00-0.00000000E+00
24 10-0.00000000E+00 1.76794290E-01-0.00000000E+00-0.00000000E+00-0.00000000E+00
24 11-0.00000000E+00-1.76794290E-01-0.00000000E+00-0.00000000E+00-2.36562021E-01
24 12 2.36562021E-01 2.36562021E-01-2.36562021E-01
25  1 1.71038441E-02-5.38641676E-02 2.26173956E-01 7.28245086E-02 0.00000000E+00
25  2-1.71038441E-02 5.38641676E-02 2.26173956E-01-7.28245086E-02 0.00000000E+00
25  3 1.71038441E-02-5.38641676E-02 2.26173956E-01-7.28245086E-02 0.00000000E+00
25  4-1.71038441E-02 5.38641676E-02 2.26173956E-01 7.28245086E-02 0.00000000E+00
25  5 1.18981610E-01-1.18981610E-01 1.18981610E-01-1.18981610E-01-9.40664113E-03
25  6 3.66571489E-02-2.55781521E-01-2.37974521E-02 0.00000000E+00 9.40664113E-03
25  7-3.66571489E-02-2.55781521E-01 2.37974521E-02 0.00000000E+00-9.40664113E-03
25  8 3.66571489E-02-2.55781521E-01 2.37974521E-02 0.00000000E+00 9.40664113E-03
25  9-3.66571489E-02-2.55781521E-01-2.37974521E-02 0.00000000E+00 0.00000000E+00
25 10 0.00000000E+00 2.81064160E-01 0.00000000E+00 0.00000000E+00 0.00000000E+00
25 11 0.00000000E+00 2.81064160E-01 0.00000000E+00 0.00000000E+00 3.84165213E-02
25 12-3.84165213E-02 3.84165213E-02-3.84165213E-02
26  1-7.90377932E-03 3.68470628E-02 2.69027830E-01-1.89706360E-02 0.00000000E+00
26  2-7.90377932E-03 3.68470628E-02-2.69027830E-01-1.89706360E-02 0.00000000E+00
26  3 7.90377932E-03-3.68470628E-02-2.69027830E-01-1.89706360E-02 0.00000000E+00
26  4 7.90377932E-03-3.68470628E-02 2.69027830E-01-1.89706360E-02 0.00000000E+00
26  5-2.46180394E-01-2.46180394E-01 2.46180394E-01 2.46180394E-01 3.37857125E-02
26  6-1.13910866E-01-1.55656694E-01-1.15217637E-01 0.00000000E+00 3.37857125E-02
26  7-1.13910866E-01 1.55656694E-01-1.15217637E-01 0.00000000E+00-3.37857125E-02
26  8 1.13910866E-01 1.55656694E-01-1.15217637E-01 0.00000000E+00-3.37857125E-02
26  9 1.13910866E-01-1.55656694E-01-1.15217637E-01 0.00000000E+00-2.40580775E-02
26 10 8.11001067E-02 0.00000000E+00-6.68705800E-02 0.00000000E+00 2.40580775E-02
26 11-8.11001067E-02 0.00000000E+00-6.68705800E-02 0.00000000E+00 4.89187752E-02
26 12 4.89187752E-02-4.89187752E-02-4.89187752E-02
27  1-0.00000000E+00-0.00000000E+00-0.00000000E+00-0.00000000E+00 2.05562096E-01
27  2-0.00000000E+00-0.00000000E+00-0.00000000E+00-0.00000000E+00 2.05562096E-01
27  3-0.00000000E+00-0.00000000E+00-0.00000000E+00-0.00000000E+00 2.05562096E-01
27  4-0.00000000E+00-0.00000000E+00-0.00000000E+00-0.00000000E+00 2.05562096E-01
27  5-0.00000000E+00-0.00000000E+00-0.00000000E+00-0.00000000E+00-0.00000000E+00
27  6-0.00000000E+00-0.00000000E+00-0.00000000E+00 2.42688483E-01-0.00000000E+00
27  7-0.00000000E+00-0.00000000E+00-0.00000000E+00 2.42688483E-01-0.00000000E+00
27  8-0.00000000E+00-0.00000000E+00-0.00000000E+00 2.42688483E-01-0.00000000E+00
27  9-0.00000000E+00-0.00000000E+00-0.00000000E+00 2.42688483E-01-0.00000000E+00
27 10-0.00000000E+00-0.00000000E+00-0.00000000E+00 3.43105309E-01-0.00000000E+00
27 11-0.00000000E+00-0.00000000E+00-0.00000000E+00 3.43105309E-01-0.00000000E+00
27 12-0.00000000E+00-0.00000000E+00-0.00000000E+00
28  1-1.03636184E-02 3.60912774E-02-3.09119261E-02 3.02810261E-01-0.00000000E+00
28  2 1.03636184E-02-3.60912774E-02-3.09119261E-02-3.02810261E-01-0.00000000E+00
28  3-1.03636184E-02 3.60912774E-02-3.09119261E-02-3.02810261E-01-0.00000000E+00
28  4 1.03636184E-02-3.60912774E-02-3.09119261E-02 3.02810261E-01-0.00000000E+00
28  5-1.61241883E-01 1.61241883E-01-1.61241883E-01 1.61241883E-01-2.59124245E-03
28  6 1.76729859E-02-4.01254104E-02-1.83114228E-01-0.00000000E+00 2.59124245E-03
28  7-1.76729859E-02-4.01254104E-02 1.83114228E-01-0.00000000E+00-2.59124245E-03
28  8 1.76729859E-02-4.01254104E-02 1.83114228E-01-0.00000000E+00 2.59124245E-03
28  9-1.76729859E-02-4.01254104E-02-1.83114228E-01-0.00000000E+00-0.00000000E+00
28 10-0.00000000E+00-1.22174393E-01-0.00000000E+00-0.00000000E+00-0.00000000E+00
28 11-0.00000000E+00-1.22174393E-01-0.00000000E+00-0.00000000E+00 1.86869430E-01
28 12-1.86869430E-01 1.86869430E-01-1.86869430E-01
29  1 6.56846369E-03-1.40900268E-02 2.26141884E-01 2.48391510E-02-0.00000000E+00
29  2-6.56846369E-03 1.40900268E-02 2.26141884E-01-2.48391510E-02-0.00000000E+00
29  3-6.56846369E-03 1.40900268E-02-2.26141884E-01 2.48391510E-02-0.00000000E+00
29  4 6.56846369E-03-1.40900268E-02-2.26141884E-01-2.48391510E-02-0.00000000E+00
29  5-1.98778052E-01 1.98778052E-01 1.98778052E-01-1.98778052E-01-6.76222185E-03
29  6 2.66269931E-02-2.85081040E-01 2.76616789E-02-0.00000000E+00 6.76222185E-03
29  7-2.66269931E-02-2.85081040E-01-2.76616789E-02-0.00000000E+00 6.76222185E-03
29  8-2.66269931E-02 2.85081040E-01 2.76616789E-02-0.00000000E+00-6.76222185E-03
29  9 2.66269931E-02 2.85081040E-01-2.76616789E-02-0.00000000E+00-0.00000000E+00
29 10-0.00000000E+00 2.86244656E-01-0.00000000E+00-0.00000000E+00-0.00000000E+00
29 11-0.00000000E+00-2.86244656E-01-0.00000000E+00-0.00000000E+00-1.54663680E-02
29 12 1.54663680E-02 1.54663680E-02-1.54663680E-02
30  1-2.88175150E-03 8.62576345E-03 7.16776581E-03 2.03193664E-01 0.00000000E+00
30  2-2.88175150E-03 8.62576345E-03-7.16776581E-03 2.03193664E-01 0.00000000E+00
30  3-2.88175150E-03 8.62576345E-03 7.16776581E-03-2.03193664E-01 0.00000000E+00
30  4-2.88175150E-03 8.62576345E-03-7.16776581E-03-2.03193664E-01 0.00000000E+00
30  5-1.03056109E-01-1.03056109E-01-1.03056109E-01-1.03056109E-01 1.46905437E-02
30  6-4.78258211E-02 5.56342371E-02-2.10509377E-01 0.00000000E+00 1.46905437E-02
30  7-4.78258211E-02-5.56342371E-02-2.10509377E-01 0.00000000E+00 1.46905437E-02
30  8-4.78258211E-02 5.56342371E-02 2.10509377E-01 0.00000000E+00 1.46905437E-02
30  9-4.78258211E-02-5.56342371E-02 2.10509377E-01 0.00000000E+00-1.71681363E-03
30 10 4.19305169E-03 0.00000000E+00 3.61007246E-01 0.00000000E+00-1.71681363E-03
30 11 4.19305169E-03 0.00000000E+00-3.61007246E-01 0.00000000E+00 2.28186653E-01
30 12 2.28186653E-01 2.28186653E-01 2.28186653E-01
31  1-0.00000000E+00-0.00000000E+00-0.00000000E+00-0.00000000E+00 3.56372087E-01
31  2-0.00000000E+00-0.00000000E+00-0.00000000E+00-0.00000000E+00-3.56372087E-01
31  3-0.00000000E+00-0.00000000E+00-0.00000000E+00-0.00000000E+00 3.56372087E-01
31  4-0.00000000E+00-0.00000000E+00-0.00000000E+00-0.00000000E+00-3.56372087E-01
31  5-0.00000000E+00-0.00000000E+00-0.00000000E+00-0.00000000E+00-0.00000000E+00
31  6-0.00000000E+00-0.00000000E+00-0.00000000E+00 2.36409124E-01-0.00000000E+00